(set-info :smt-lib-version 2.6)
(set-logic QF_S)
(set-info :source |
Generated by: Hongjian Jiang, Oliver Markgraf, Daniel Stan, Anthony W. Lin, Philipp Ruemmer
Generated on: 2025-04-11
Application: Using String Solvers to solve RMC problems encoded as CHC over Strings
Target solver: cvc5, OSTRICH, Z3, Z3alpha, Z3-noodler
Time limit: 60.0
Benchmarks are extracted by running HornStr https://arg-git.informatik.uni-kl.de/pub/string-chc-lib on all benchmarks
provided in the repository and gathering the string queries sent to the string solvers.
|)
(set-info :license "https://creativecommons.org/licenses/by/4.0/")
(set-info :category "industrial")
(set-info :status unknown)
(declare-fun varout () String)
(assert (let ((a!1 (re.* (re.union (re.union (str.to_re "r") (str.to_re "b"))
                           (str.to_re "n")))))
  (str.in_re varout a!1)))
(declare-fun varin () String)
(assert (let ((a!1 (re.* (re.union (re.union (str.to_re "r") (str.to_re "b"))
                           (str.to_re "n")))))
  (str.in_re varin a!1)))
(declare-fun X () String)
(declare-fun A () String)
(declare-fun B () String)
(declare-fun C () String)
(declare-fun Y () String)
(declare-fun isin () Bool)
(declare-fun isout () Bool)
(assert (and true
     (= X (str.++ A "rn" B "nb" C))
     (= Y (str.++ A "nr" B "bn" C))
     (str.in_re A (re.* (str.to_re "n")))
     (str.in_re B (re.* (str.to_re "n")))
     (str.in_re C (re.* (str.to_re "n")))
     (= X varin)
     isin
     (= Y varout)
     isout))
(assert (let ((a!1 (re.++ (re.* (re.union (str.to_re "r") (str.to_re "n")))
                  (str.to_re "b"))))
(let ((a!2 (re.union (str.to_re "b")
                     (re.++ (re.union (str.to_re "r") (str.to_re "n")) a!1))))
(let ((a!3 (re.++ (re.* (re.union (str.to_re "r") (str.to_re "n"))) a!2)))
(let ((a!4 (re.union (str.to_re "r")
                     (re.++ (re.union (str.to_re "b") (str.to_re "n")) a!3))))
(let ((a!5 (re.++ (re.* a!4) (re.union (str.to_re "") (re.++ a!4 (re.* a!4))))))
  (str.in_re varin (re.++ a!3 a!5))))))))
(assert (let ((a!1 (re.++ (re.union (str.to_re "r") (str.to_re "n"))
                  (re.* (re.union (str.to_re "r") (str.to_re "n")))))
      (a!3 (re.++ (re.* (re.union (str.to_re "r") (str.to_re "n")))
                  (str.to_re "b"))))
(let ((a!2 (re.++ (re.* (re.union (str.to_re "r") (str.to_re "n")))
                  (re.union (str.to_re "") a!1)))
      (a!4 (re.union (str.to_re "b")
                     (re.++ (re.union (str.to_re "r") (str.to_re "n")) a!3))))
(let ((a!5 (re.++ (re.* (re.union (str.to_re "r") (str.to_re "n"))) a!4)))
(let ((a!6 (re.union (str.to_re "r")
                     (re.++ (re.union (str.to_re "b") (str.to_re "n")) a!5))))
(let ((a!7 (re.++ (re.* a!6)
                  (re.++ (re.union (str.to_re "b") (str.to_re "n")) a!2))))
(let ((a!8 (re.union (re.++ (re.union (str.to_re "b") (str.to_re "n")) a!2)
                     (re.++ a!6 a!7))))
(let ((a!9 (re.union a!2 (re.++ a!5 (re.++ (re.* a!6) a!8)))))
  (str.in_re varout a!9)))))))))
(check-sat)
(exit)
